c preprocessed version of RandomBipartite_25_50_1, 35 vertices, 80 edges
p td 35 80
1 0
12 0
13 0
3 0
15 0
27 0
1 2
1 24
30 1
3 2
28 2
27 2
3 4
20 3
5 4
15 4
20 4
5 6
5 14
5 19
5 9
7 6
26 6
7 8
7 31
7 24
29 7
9 8
15 8
26 8
18 8
27 8
9 10
11 10
17 10
12 11
11 25
30 11
12 13
12 31
12 21
13 14
20 13
29 13
30 13
15 14
15 16
15 31
15 25
15 28
17 16
23 16
22 16
17 18
18 19
30 18
20 19
20 21
26 20
27 20
22 21
23 22
22 25
23 24
27 28
30 27
29 28
32 8
32 33
32 29
32 27
33 34
33 20
33 23
33 27
34 32
34 20
34 23
34 28
34 29
